n_res = 4;
rc = [ 14, 13, 6, 15 ];
n_tasks = 15;
d = [ 9, 3, 8, 3, 125, 125, 125, 175, 75, 200, 225, 9, 6, 10, 3 ];
rr = [| 0, 0, 6, 0, 0, 0, 0, 0, 0, 0, 3, 0, 8, 0, 0
      | 0, 1, 0, 0, 6, 0, 0, 10, 2, 0, 0, 0, 0, 0, 0
      | 0, 0, 0, 0, 0, 0, 0, 0, 0, 0, 0, 0, 0, 0, 0
      | 6, 0, 0, 1, 0, 4, 9, 0, 0, 10, 0, 4, 0, 6, 3 |];
suc = [ { 5, 7, 11 },
       { 4 },
       { 6, 8, 13 },
       { 7, 10 },
       { 15 },
       { 9, 10 },
       { 13 },
       { 9, 15 },
       { 12 },
       { 14 },
       { 13, 15 },
       { 14 },
       {  },
       {  },
       {  } ];
